40
1 0 5
2 0 14
2 1 18
3 0 22
3 1 19
3 2 1
4 0 22
4 1 20
4 2 4
4 3 21
5 0 16
5 1 1
5 2 8
5 3 21
5 4 4
6 0 22
6 1 17
6 2 20
6 3 9
6 4 1
6 5 4
7 0 24
7 1 12
7 2 1
7 3 18
7 4 17
7 5 10
7 6 16
8 0 19
8 1 13
8 2 24
8 3 18
8 4 16
8 5 12
8 6 17
8 7 14
9 0 18
9 1 24
9 2 24
9 3 2
9 4 25
9 5 5
9 6 18
9 7 21
9 8 5
10 0 21
10 1 7
10 2 22
10 3 23
10 4 20
10 5 20
10 6 12
10 7 16
10 8 23
10 9 14
11 0 8
11 1 22
11 2 22
11 3 18
11 4 5
11 5 13
11 6 15
11 7 4
11 8 18
11 9 2
11 10 15
12 0 5
12 1 15
12 2 15
12 3 13
12 4 11
12 5 4
12 6 9
12 7 15
12 8 19
12 9 7
12 10 14
12 11 21
13 0 15
13 1 11
13 2 18
13 3 4
13 4 20
13 5 12
13 6 14
13 7 11
13 8 13
13 9 10
13 10 5
13 11 6
13 12 16
14 0 18
14 1 12
14 2 3
14 3 16
14 4 22
14 5 11
14 6 25
14 7 17
14 8 18
14 9 3
14 10 2
14 11 12
14 12 3
14 13 18
15 0 24
15 1 6
15 2 15
15 3 1
15 4 5
15 5 10
15 6 12
15 7 14
15 8 12
15 9 17
15 10 8
15 11 4
15 12 4
15 13 2
15 14 22
16 0 22
16 1 12
16 2 15
16 3 5
16 4 7
16 5 2
16 6 18
16 7 10
16 8 14
16 9 23
16 10 11
16 11 19
16 12 9
16 13 20
16 14 18
16 15 21
17 0 17
17 1 17
17 2 20
17 3 19
17 4 11
17 5 24
17 6 15
17 7 2
17 8 8
17 9 11
17 10 16
17 11 16
17 12 13
17 13 24
17 14 8
17 15 13
17 16 18
18 0 14
18 1 14
18 2 18
18 3 4
18 4 22
18 5 6
18 6 18
18 7 2
18 8 4
18 9 13
18 10 7
18 11 18
18 12 23
18 13 6
18 14 14
18 15 25
18 16 6
18 17 15
19 0 2
19 1 18
19 2 5
19 3 10
19 4 16
19 5 6
19 6 2
19 7 17
19 8 25
19 9 19
19 10 24
19 11 21
19 12 18
19 13 4
19 14 9
19 15 20
19 16 24
19 17 25
19 18 18
20 0 13
20 1 25
20 2 16
20 3 21
20 4 25
20 5 25
20 6 1
20 7 14
20 8 18
20 9 10
20 10 16
20 11 17
20 12 2
20 13 17
20 14 1
20 15 18
20 16 16
20 17 18
20 18 1
20 19 9
21 0 21
21 1 11
21 2 18
21 3 16
21 4 21
21 5 25
21 6 10
21 7 1
21 8 24
21 9 17
21 10 11
21 11 9
21 12 9
21 13 18
21 14 20
21 15 19
21 16 18
21 17 12
21 18 17
21 19 3
21 20 8
22 0 23
22 1 18
22 2 6
22 3 3
22 4 2
22 5 16
22 6 12
22 7 20
22 8 9
22 9 23
22 10 20
22 11 24
22 12 1
22 13 9
22 14 17
22 15 25
22 16 15
22 17 7
22 18 17
22 19 6
22 20 6
22 21 19
23 0 10
23 1 6
23 2 5
23 3 2
23 4 2
23 5 16
23 6 11
23 7 10
23 8 21
23 9 20
23 10 18
23 11 15
23 12 18
23 13 4
23 14 17
23 15 5
23 16 4
23 17 19
23 18 20
23 19 11
23 20 25
23 21 23
23 22 10
24 0 16
24 1 6
24 2 16
24 3 25
24 4 12
24 5 18
24 6 5
24 7 6
24 8 1
24 9 24
24 10 3
24 11 3
24 12 1
24 13 16
24 14 13
24 15 11
24 16 13
24 17 7
24 18 13
24 19 20
24 20 24
24 21 3
24 22 24
24 23 9
25 0 12
25 1 18
25 2 3
25 3 19
25 4 22
25 5 2
25 6 14
25 7 5
25 8 12
25 9 19
25 10 18
25 11 11
25 12 9
25 13 17
25 14 25
25 15 23
25 16 5
25 17 3
25 18 19
25 19 25
25 20 6
25 21 18
25 22 8
25 23 10
25 24 21
26 0 25
26 1 13
26 2 6
26 3 18
26 4 6
26 5 25
26 6 23
26 7 17
26 8 20
26 9 4
26 10 7
26 11 24
26 12 5
26 13 20
26 14 18
26 15 22
26 16 6
26 17 21
26 18 10
26 19 5
26 20 11
26 21 6
26 22 20
26 23 23
26 24 16
26 25 10
27 0 22
27 1 9
27 2 8
27 3 23
27 4 3
27 5 22
27 6 24
27 7 12
27 8 16
27 9 4
27 10 25
27 11 4
27 12 17
27 13 6
27 14 13
27 15 20
27 16 25
27 17 1
27 18 6
27 19 14
27 20 8
27 21 24
27 22 22
27 23 6
27 24 7
27 25 2
27 26 23
28 0 4
28 1 4
28 2 18
28 3 6
28 4 3
28 5 18
28 6 4
28 7 25
28 8 8
28 9 18
28 10 15
28 11 24
28 12 19
28 13 18
28 14 24
28 15 5
28 16 23
28 17 25
28 18 2
28 19 18
28 20 16
28 21 19
28 22 1
28 23 6
28 24 22
28 25 3
28 26 23
28 27 16
29 0 25
29 1 19
29 2 24
29 3 16
29 4 15
29 5 13
29 6 25
29 7 8
29 8 17
29 9 22
29 10 14
29 11 4
29 12 14
29 13 7
29 14 19
29 15 11
29 16 13
29 17 19
29 18 4
29 19 23
29 20 12
29 21 20
29 22 10
29 23 15
29 24 2
29 25 4
29 26 14
29 27 22
29 28 24
30 0 8
30 1 5
30 2 18
30 3 20
30 4 11
30 5 17
30 6 2
30 7 24
30 8 8
30 9 3
30 10 8
30 11 13
30 12 23
30 13 16
30 14 17
30 15 24
30 16 10
30 17 16
30 18 20
30 19 16
30 20 7
30 21 4
30 22 1
30 23 14
30 24 1
30 25 23
30 26 10
30 27 7
30 28 5
30 29 23
31 0 1
31 1 2
31 2 23
31 3 9
31 4 3
31 5 5
31 6 7
31 7 2
31 8 12
31 9 9
31 10 7
31 11 10
31 12 13
31 13 1
31 14 18
31 15 15
31 16 10
31 17 22
31 18 15
31 19 8
31 20 25
31 21 21
31 22 12
31 23 22
31 24 22
31 25 16
31 26 9
31 27 18
31 28 17
31 29 5
31 30 14
32 0 3
32 1 11
32 2 18
32 3 4
32 4 5
32 5 5
32 6 14
32 7 6
32 8 23
32 9 2
32 10 16
32 11 1
32 12 1
32 13 6
32 14 7
32 15 11
32 16 1
32 17 17
32 18 22
32 19 24
32 20 14
32 21 3
32 22 15
32 23 16
32 24 20
32 25 15
32 26 22
32 27 14
32 28 13
32 29 24
32 30 15
32 31 7
33 0 22
33 1 2
33 2 16
33 3 3
33 4 18
33 5 2
33 6 3
33 7 20
33 8 25
33 9 21
33 10 8
33 11 17
33 12 9
33 13 15
33 14 7
33 15 19
33 16 16
33 17 25
33 18 22
33 19 15
33 20 25
33 21 20
33 22 9
33 23 23
33 24 20
33 25 21
33 26 3
33 27 2
33 28 10
33 29 9
33 30 6
33 31 9
33 32 20
34 0 16
34 1 20
34 2 1
34 3 7
34 4 8
34 5 23
34 6 8
34 7 4
34 8 23
34 9 15
34 10 4
34 11 15
34 12 1
34 13 21
34 14 13
34 15 12
34 16 9
34 17 24
34 18 6
34 19 22
34 20 22
34 21 8
34 22 18
34 23 8
34 24 4
34 25 3
34 26 16
34 27 2
34 28 24
34 29 14
34 30 3
34 31 3
34 32 9
34 33 11
35 0 5
35 1 13
35 2 10
35 3 23
35 4 21
35 5 7
35 6 6
35 7 16
35 8 25
35 9 5
35 10 17
35 11 20
35 12 5
35 13 24
35 14 22
35 15 12
35 16 16
35 17 12
35 18 21
35 19 19
35 20 6
35 21 13
35 22 16
35 23 8
35 24 16
35 25 23
35 26 11
35 27 4
35 28 22
35 29 3
35 30 5
35 31 2
35 32 4
35 33 9
35 34 6
36 0 2
36 1 10
36 2 7
36 3 24
36 4 8
36 5 18
36 6 15
36 7 3
36 8 22
36 9 13
36 10 20
36 11 7
36 12 5
36 13 8
36 14 19
36 15 11
36 16 20
36 17 25
36 18 24
36 19 11
36 20 25
36 21 20
36 22 19
36 23 12
36 24 11
36 25 9
36 26 19
36 27 14
36 28 17
36 29 10
36 30 6
36 31 17
36 32 7
36 33 16
36 34 9
36 35 24
37 0 8
37 1 8
37 2 10
37 3 16
37 4 18
37 5 25
37 6 2
37 7 15
37 8 4
37 9 23
37 10 17
37 11 1
37 12 14
37 13 11
37 14 25
37 15 4
37 16 9
37 17 17
37 18 5
37 19 14
37 20 23
37 21 11
37 22 1
37 23 20
37 24 11
37 25 22
37 26 22
37 27 5
37 28 11
37 29 9
37 30 19
37 31 15
37 32 8
37 33 25
37 34 10
37 35 2
37 36 2
38 0 7
38 1 10
38 2 12
38 3 21
38 4 19
38 5 3
38 6 12
38 7 5
38 8 9
38 9 15
38 10 16
38 11 12
38 12 2
38 13 12
38 14 3
38 15 25
38 16 8
38 17 21
38 18 20
38 19 2
38 20 11
38 21 11
38 22 5
38 23 11
38 24 25
38 25 24
38 26 25
38 27 20
38 28 11
38 29 13
38 30 2
38 31 19
38 32 24
38 33 18
38 34 19
38 35 3
38 36 12
38 37 20
39 0 5
39 1 24
39 2 11
39 3 13
39 4 4
39 5 8
39 6 19
39 7 13
39 8 11
39 9 6
39 10 10
39 11 25
39 12 9
39 13 17
39 14 14
39 15 16
39 16 16
39 17 7
39 18 7
39 19 15
39 20 16
39 21 6
39 22 13
39 23 25
39 24 20
39 25 12
39 26 20
39 27 12
39 28 3
39 29 9
39 30 11
39 31 14
39 32 3
39 33 3
39 34 25
39 35 4
39 36 9
39 37 21
39 38 22
